
;this file is automatically generated: Mon Oct 26 19:31:23 CST 2020

;declarations generated

(declare-fun oclExcludes ( Int Int) Bool)
(declare-fun obj_3355f06c_e5e5_4b22_8ca5_7e5e6a462b4f ( Int) Int)
(declare-fun Cardinality ( Int) Int)
(declare-fun type_d619f4bb_b993_4ef5_9f1f_4166a565d77c_Class13 ( Int) Bool)
(declare-fun type_d619f4bb_b993_4ef5_9f1f_4166a565d77c_Class16 ( Int) Bool)
(declare-fun type_d619f4bb_b993_4ef5_9f1f_4166a565d77c_Class15 ( Int) Bool)
(declare-fun type_d619f4bb_b993_4ef5_9f1f_4166a565d77c_Class2 ( Int) Bool)
(declare-fun type_d619f4bb_b993_4ef5_9f1f_4166a565d77c_Class4 ( Int) Bool)
(declare-fun class4_Class4IntAttr4 ( Int) Int)
(declare-fun class4_Class4IntAttr3 ( Int) Int)
(declare-fun type_d619f4bb_b993_4ef5_9f1f_4166a565d77c_Class41 ( Int) Bool)
(declare-fun type_d619f4bb_b993_4ef5_9f1f_4166a565d77c_Class33 ( Int) Bool)
(declare-fun oclSelect ( Int Bool) Int)
(declare-fun Enum0 ( Int) Int)
(declare-fun Enum1 ( Int) Int)
(declare-fun Enum2 ( Int) Int)
(declare-fun container_ ( Int) Int)
(declare-fun oclIncludes ( Int Int) Bool)
(declare-fun ObjAt ( Int Int) Int)

;formula(s) generated
(assert (! (forall ((c4_2 Int)(c4_1 Int)) (=> (and (and (and (and (and (and (and ( type_d619f4bb_b993_4ef5_9f1f_4166a565d77c_Class4 c4_1 )  ( type_d619f4bb_b993_4ef5_9f1f_4166a565d77c_Class33 c4_1 ) ) ( type_d619f4bb_b993_4ef5_9f1f_4166a565d77c_Class13 c4_1 ) ) ( type_d619f4bb_b993_4ef5_9f1f_4166a565d77c_Class16 c4_1 ) ) ( type_d619f4bb_b993_4ef5_9f1f_4166a565d77c_Class15 c4_1 ) ) ( type_d619f4bb_b993_4ef5_9f1f_4166a565d77c_Class41 c4_1 ) ) ( type_d619f4bb_b993_4ef5_9f1f_4166a565d77c_Class2 c4_1 ) ) (and (and (and (and (and (and ( type_d619f4bb_b993_4ef5_9f1f_4166a565d77c_Class4 c4_2 )  ( type_d619f4bb_b993_4ef5_9f1f_4166a565d77c_Class33 c4_2 ) ) ( type_d619f4bb_b993_4ef5_9f1f_4166a565d77c_Class13 c4_2 ) ) ( type_d619f4bb_b993_4ef5_9f1f_4166a565d77c_Class16 c4_2 ) ) ( type_d619f4bb_b993_4ef5_9f1f_4166a565d77c_Class15 c4_2 ) ) ( type_d619f4bb_b993_4ef5_9f1f_4166a565d77c_Class41 c4_2 ) ) ( type_d619f4bb_b993_4ef5_9f1f_4166a565d77c_Class2 c4_2 ) )) (< ( class4_Class4IntAttr4 ( obj_3355f06c_e5e5_4b22_8ca5_7e5e6a462b4f c4_1 )  )  ( class4_Class4IntAttr3 ( obj_3355f06c_e5e5_4b22_8ca5_7e5e6a462b4f c4_2 )  ) ))):named l0))
(assert (! (forall ((v Int)) (=> (and (and (and (and (and (and ( type_d619f4bb_b993_4ef5_9f1f_4166a565d77c_Class4 v )  ( type_d619f4bb_b993_4ef5_9f1f_4166a565d77c_Class33 v ) ) ( type_d619f4bb_b993_4ef5_9f1f_4166a565d77c_Class13 v ) ) ( type_d619f4bb_b993_4ef5_9f1f_4166a565d77c_Class16 v ) ) ( type_d619f4bb_b993_4ef5_9f1f_4166a565d77c_Class15 v ) ) ( type_d619f4bb_b993_4ef5_9f1f_4166a565d77c_Class41 v ) ) ( type_d619f4bb_b993_4ef5_9f1f_4166a565d77c_Class2 v ) ) (<= ( class4_Class4IntAttr4 ( obj_3355f06c_e5e5_4b22_8ca5_7e5e6a462b4f v )  )  14))):named l1))
(assert (exists ((o Int)) (and (and (and (and (and (and ( type_d619f4bb_b993_4ef5_9f1f_4166a565d77c_Class4 ( obj_3355f06c_e5e5_4b22_8ca5_7e5e6a462b4f o )  )  ( type_d619f4bb_b993_4ef5_9f1f_4166a565d77c_Class33 ( obj_3355f06c_e5e5_4b22_8ca5_7e5e6a462b4f o )  ) ) ( type_d619f4bb_b993_4ef5_9f1f_4166a565d77c_Class13 ( obj_3355f06c_e5e5_4b22_8ca5_7e5e6a462b4f o )  ) ) ( type_d619f4bb_b993_4ef5_9f1f_4166a565d77c_Class16 ( obj_3355f06c_e5e5_4b22_8ca5_7e5e6a462b4f o )  ) ) ( type_d619f4bb_b993_4ef5_9f1f_4166a565d77c_Class15 ( obj_3355f06c_e5e5_4b22_8ca5_7e5e6a462b4f o )  ) ) ( type_d619f4bb_b993_4ef5_9f1f_4166a565d77c_Class41 ( obj_3355f06c_e5e5_4b22_8ca5_7e5e6a462b4f o )  ) ) ( type_d619f4bb_b993_4ef5_9f1f_4166a565d77c_Class2 ( obj_3355f06c_e5e5_4b22_8ca5_7e5e6a462b4f o )  ) )))

 ;end of formula 